NAME : lin105.tsp
COMMENT : Optimal tour for lin105.tsp
TYPE : TOUR
DIMENSION : 105
Total Length: 14602.025151072627
TOUR_SECTION
1
2
6
7
10
11
15
21
22
29
32
31
30
103
20
23
28
33
27
24
19
16
17
18
25
26
37
36
104
40
49
45
48
50
55
56
59
105
57
54
51
47
44
41
42
43
46
52
53
58
62
63
70
69
74
75
81
80
76
73
64
67
68
71
78
82
83
85
84
72
77
79
86
91
92
96
97
101
102
93
89
90
98
99
100
95
94
88
87
66
65
61
60
39
38
35
34
14
13
4
5
9
8
12
3
-1
EOF
